Route #1: 0 9 37 21 18 3 2 35 24 0
Route #2: 0 25 39 19 27 38 4 0
Route #3: 0 26 5 16 40 12 8 0
Route #4: 0 15 31 22 20 7 13 0
Route #5: 0 30 36 32 23 10 14 29 0
Route #6: 0 1 17 28 11 34 33 6 0
Cost 864:
